words_hard_train/7145.qaiger
aag 92 16 0 1 76
2
4
8
12
16
20
26
34
40
52
54
58
62
76
134
150
184
6 2 4
10 8 4
14 11 13
18 14 17
22 18 21
24 23 4
28 25 27
30 29 4
32 7 31
36 32 35
38 36 4
42 39 40
44 19 4
46 45 20
48 44 21
50 47 49
56 53 55
60 56 59
64 61 62
66 60 63
68 65 67
70 50 69
72 24 26
74 73 29
78 67 76
80 66 77
82 79 81
84 75 83
86 71 85
88 15 4
90 89 16
92 88 17
94 91 93
96 57 58
98 97 61
100 52 54
102 101 57
104 10 12
106 105 15
108 102 106
110 99 109
112 95 111
114 51 68
116 113 115
118 108 59
120 116 119
122 86 121
124 74 82
126 123 125
128 31 3
130 30 2
132 129 131
136 81 134
138 80 135
140 137 139
142 133 141
144 127 143
146 132 140
148 145 147
152 139 150
154 138 151
156 153 155
158 33 34
160 159 37
162 157 161
164 149 163
166 156 160
168 165 167
170 169 154
172 42 171
174 168 155
176 175 43
178 173 177
180 38 41
182 180 171
184 179 183
i0 1 x2[5]
i1 1 x2[7]
i2 1 x2[0]
i3 1 x2[1]
i4 1 x2[2]
i5 1 x2[3]
i6 1 x2[4]
i7 1 x2[6]
i8 2 y2[7]
i9 2 y2[0]
i10 2 y2[1]
i11 2 y2[2]
i12 2 y2[3]
i13 2 y2[4]
i14 2 y2[5]
i15 2 y2[6]
o0 bv[0]
c
simplified
  <=
    2 y2
    subtract
      or
        1
        abs
          1 x2
      1
