words_hard_train/7145.qaiger.qdimacs
p cnf 92 229
a 1 2 4 6 8 10 13 17 0
e 3 5 7 9 11 12 14 15 16 18 19 20 21 22 23 24 25 26 27 28 29 30 31 32 33 34 35 36 37 38 39 40 41 42 43 44 45 46 47 48 49 50 51 52 53 54 55 56 57 58 59 60 61 62 63 64 65 66 67 68 69 70 71 72 73 74 75 76 77 78 79 80 81 82 83 84 85 86 87 88 89 90 91 92 0
-1 -2 3 0
1 -3 0
2 -3 0
-4 -2 5 0
4 -5 0
2 -5 0
5 6 7 0
-5 -7 0
-6 -7 0
-7 8 9 0
7 -9 0
-8 -9 0
-9 10 11 0
9 -11 0
-10 -11 0
11 -2 12 0
-11 -12 0
2 -12 0
12 13 14 0
-12 -14 0
-13 -14 0
14 -2 15 0
-14 -15 0
2 -15 0
3 15 16 0
-3 -16 0
-15 -16 0
-16 17 18 0
16 -18 0
-17 -18 0
-18 -2 19 0
18 -19 0
2 -19 0
19 -20 21 0
-19 -21 0
20 -21 0
9 -2 22 0
-9 -22 0
2 -22 0
22 -10 23 0
-22 -23 0
10 -23 0
-22 10 24 0
22 -24 0
-10 -24 0
23 24 25 0
-23 -25 0
-24 -25 0
26 27 28 0
-26 -28 0
-27 -28 0
-28 29 30 0
28 -30 0
-29 -30 0
30 -31 32 0
-30 -32 0
31 -32 0
-30 31 33 0
30 -33 0
-31 -33 0
32 33 34 0
-32 -34 0
-33 -34 0
-25 34 35 0
25 -35 0
-34 -35 0
-12 -13 36 0
12 -36 0
13 -36 0
36 14 37 0
-36 -37 0
-14 -37 0
33 -38 39 0
-33 -39 0
38 -39 0
-33 38 40 0
33 -40 0
-38 -40 0
39 40 41 0
-39 -41 0
-40 -41 0
37 41 42 0
-37 -42 0
-41 -42 0
35 42 43 0
-35 -43 0
-42 -43 0
7 -2 44 0
-7 -44 0
2 -44 0
44 -8 45 0
-44 -45 0
8 -45 0
-44 8 46 0
44 -46 0
-8 -46 0
45 46 47 0
-45 -47 0
-46 -47 0
28 -29 48 0
-28 -48 0
29 -48 0
48 30 49 0
-48 -49 0
-30 -49 0
-26 -27 50 0
26 -50 0
27 -50 0
50 28 51 0
-50 -51 0
-28 -51 0
-5 -6 52 0
5 -52 0
6 -52 0
52 7 53 0
-52 -53 0
-7 -53 0
-51 -53 54 0
51 -54 0
53 -54 0
49 54 55 0
-49 -55 0
-54 -55 0
47 55 56 0
-47 -56 0
-55 -56 0
25 -34 57 0
-25 -57 0
34 -57 0
56 57 58 0
-56 -58 0
-57 -58 0
-54 29 59 0
54 -59 0
-29 -59 0
-58 59 60 0
58 -60 0
-59 -60 0
-43 60 61 0
43 -61 0
-60 -61 0
-37 -41 62 0
37 -62 0
41 -62 0
61 62 63 0
-61 -63 0
-62 -63 0
15 1 64 0
-15 -64 0
-1 -64 0
-15 -1 65 0
15 -65 0
1 -65 0
64 65 66 0
-64 -66 0
-65 -66 0
40 -67 68 0
-40 -68 0
67 -68 0
-40 67 69 0
40 -69 0
-67 -69 0
68 69 70 0
-68 -70 0
-69 -70 0
66 70 71 0
-66 -71 0
-70 -71 0
63 71 72 0
-63 -72 0
-71 -72 0
-66 -70 73 0
66 -73 0
70 -73 0
72 73 74 0
-72 -74 0
-73 -74 0
69 -75 76 0
-69 -76 0
75 -76 0
-69 75 77 0
69 -77 0
-75 -77 0
76 77 78 0
-76 -78 0
-77 -78 0
16 -17 79 0
-16 -79 0
17 -79 0
79 18 80 0
-79 -80 0
-18 -80 0
78 80 81 0
-78 -81 0
-80 -81 0
74 81 82 0
-74 -82 0
-81 -82 0
-78 -80 83 0
78 -83 0
80 -83 0
82 83 84 0
-82 -84 0
-83 -84 0
84 -77 85 0
-84 -85 0
77 -85 0
-21 85 86 0
21 -86 0
-85 -86 0
-84 77 87 0
84 -87 0
-77 -87 0
87 21 88 0
-87 -88 0
-21 -88 0
86 88 89 0
-86 -89 0
-88 -89 0
-19 20 90 0
19 -90 0
-20 -90 0
-90 85 91 0
90 -91 0
-85 -91 0
89 91 92 0
-89 -92 0
-91 -92 0
92 0
